Si8
1 0.9 1.1
5.468728 0.000000 0.000000
0.000000 5.468728 0.000000
0.000000 0.000000 5.468728
Si
8
kirect #for testing cartesian input
1.36718200000000	4.10154600000000	1.36718200000000    Si
0                   0                   2.73436400000000    Si
1.36718200000000	1.36718200000000	4.10154600000000    Si
0                   2.73436400000000	0                   Si
4.10154600000000	4.10154600000000	4.10154600000000    Si
2.73436400000000	0                   0                   Si
4.10154600000000	1.36718200000000	1.36718200000000    Si
2.73436400000000	2.73436400000000	2.73436400000000    Si
