pymatgen with grid density = 1816 / number of atoms
0
Gamma
5 5 2
